
;this file is automatically generated: Mon Oct 04 22:33:14 IST 2021

;declarations generated

(declare-fun oclExcludes ( Int Int) Bool)
(declare-fun Cardinality ( Int) Int)
(declare-fun oclSelect ( Int Bool) Int)
(declare-fun class6_Class6IntAttr3 ( Int) Int)
(declare-fun class6_Class6IntAttr4 ( Int) Int)
(declare-fun type_46151cd2_2e0a_47f1_8892_cdad46fd5024_Class50 ( Int) Bool)
(declare-fun type_46151cd2_2e0a_47f1_8892_cdad46fd5024_Class52 ( Int) Bool)
(declare-fun type_46151cd2_2e0a_47f1_8892_cdad46fd5024_Class51 ( Int) Bool)
(declare-fun type_46151cd2_2e0a_47f1_8892_cdad46fd5024_Class54 ( Int) Bool)
(declare-fun type_46151cd2_2e0a_47f1_8892_cdad46fd5024_Class53 ( Int) Bool)
(declare-fun type_46151cd2_2e0a_47f1_8892_cdad46fd5024_Class55 ( Int) Bool)
(declare-fun Enum0 ( Int) Int)
(declare-fun Enum1 ( Int) Int)
(declare-fun type_46151cd2_2e0a_47f1_8892_cdad46fd5024_Class47 ( Int) Bool)
(declare-fun Enum2 ( Int) Int)
(declare-fun type_46151cd2_2e0a_47f1_8892_cdad46fd5024_Class46 ( Int) Bool)
(declare-fun type_46151cd2_2e0a_47f1_8892_cdad46fd5024_Class49 ( Int) Bool)
(declare-fun type_46151cd2_2e0a_47f1_8892_cdad46fd5024_Class48 ( Int) Bool)
(declare-fun type_46151cd2_2e0a_47f1_8892_cdad46fd5024_Class41 ( Int) Bool)
(declare-fun type_46151cd2_2e0a_47f1_8892_cdad46fd5024_Class40 ( Int) Bool)
(declare-fun type_46151cd2_2e0a_47f1_8892_cdad46fd5024_Class43 ( Int) Bool)
(declare-fun type_46151cd2_2e0a_47f1_8892_cdad46fd5024_Class42 ( Int) Bool)
(declare-fun type_46151cd2_2e0a_47f1_8892_cdad46fd5024_Class45 ( Int) Bool)
(declare-fun type_46151cd2_2e0a_47f1_8892_cdad46fd5024_Class44 ( Int) Bool)
(declare-fun container_ ( Int) Int)
(declare-fun obj_1410747d_e7e4_4a03_97a1_8334b2a138bc ( Int) Int)
(declare-fun type_46151cd2_2e0a_47f1_8892_cdad46fd5024_Class14 ( Int) Bool)
(declare-fun type_46151cd2_2e0a_47f1_8892_cdad46fd5024_Class13 ( Int) Bool)
(declare-fun type_46151cd2_2e0a_47f1_8892_cdad46fd5024_Class16 ( Int) Bool)
(declare-fun type_46151cd2_2e0a_47f1_8892_cdad46fd5024_Class15 ( Int) Bool)
(declare-fun type_46151cd2_2e0a_47f1_8892_cdad46fd5024_Class18 ( Int) Bool)
(declare-fun type_46151cd2_2e0a_47f1_8892_cdad46fd5024_Class17 ( Int) Bool)
(declare-fun type_46151cd2_2e0a_47f1_8892_cdad46fd5024_Class19 ( Int) Bool)
(declare-fun type_46151cd2_2e0a_47f1_8892_cdad46fd5024_Class1 ( Int) Bool)
(declare-fun type_46151cd2_2e0a_47f1_8892_cdad46fd5024_Class0 ( Int) Bool)
(declare-fun type_46151cd2_2e0a_47f1_8892_cdad46fd5024_Class10 ( Int) Bool)
(declare-fun type_46151cd2_2e0a_47f1_8892_cdad46fd5024_Class5 ( Int) Bool)
(declare-fun type_46151cd2_2e0a_47f1_8892_cdad46fd5024_Class4 ( Int) Bool)
(declare-fun type_46151cd2_2e0a_47f1_8892_cdad46fd5024_Class12 ( Int) Bool)
(declare-fun type_46151cd2_2e0a_47f1_8892_cdad46fd5024_Class3 ( Int) Bool)
(declare-fun type_46151cd2_2e0a_47f1_8892_cdad46fd5024_Class11 ( Int) Bool)
(declare-fun type_46151cd2_2e0a_47f1_8892_cdad46fd5024_Class2 ( Int) Bool)
(declare-fun type_46151cd2_2e0a_47f1_8892_cdad46fd5024_Class9 ( Int) Bool)
(declare-fun type_46151cd2_2e0a_47f1_8892_cdad46fd5024_Class8 ( Int) Bool)
(declare-fun type_46151cd2_2e0a_47f1_8892_cdad46fd5024_Class7 ( Int) Bool)
(declare-fun type_46151cd2_2e0a_47f1_8892_cdad46fd5024_Class6 ( Int) Bool)
(declare-fun oclIncludes ( Int Int) Bool)
(declare-fun type_46151cd2_2e0a_47f1_8892_cdad46fd5024_Class36 ( Int) Bool)
(declare-fun type_46151cd2_2e0a_47f1_8892_cdad46fd5024_Class35 ( Int) Bool)
(declare-fun type_46151cd2_2e0a_47f1_8892_cdad46fd5024_Class38 ( Int) Bool)
(declare-fun type_46151cd2_2e0a_47f1_8892_cdad46fd5024_Class37 ( Int) Bool)
(declare-fun type_46151cd2_2e0a_47f1_8892_cdad46fd5024_Class39 ( Int) Bool)
(declare-fun type_46151cd2_2e0a_47f1_8892_cdad46fd5024_Class30 ( Int) Bool)
(declare-fun type_46151cd2_2e0a_47f1_8892_cdad46fd5024_Class32 ( Int) Bool)
(declare-fun type_46151cd2_2e0a_47f1_8892_cdad46fd5024_Class31 ( Int) Bool)
(declare-fun type_46151cd2_2e0a_47f1_8892_cdad46fd5024_Class34 ( Int) Bool)
(declare-fun type_46151cd2_2e0a_47f1_8892_cdad46fd5024_Class33 ( Int) Bool)
(declare-fun ObjAt ( Int Int) Int)
(declare-fun type_46151cd2_2e0a_47f1_8892_cdad46fd5024_Class25 ( Int) Bool)
(declare-fun type_46151cd2_2e0a_47f1_8892_cdad46fd5024_Class24 ( Int) Bool)
(declare-fun type_46151cd2_2e0a_47f1_8892_cdad46fd5024_Class27 ( Int) Bool)
(declare-fun type_46151cd2_2e0a_47f1_8892_cdad46fd5024_Class26 ( Int) Bool)
(declare-fun type_46151cd2_2e0a_47f1_8892_cdad46fd5024_Class29 ( Int) Bool)
(declare-fun type_46151cd2_2e0a_47f1_8892_cdad46fd5024_Class28 ( Int) Bool)
(declare-fun type_46151cd2_2e0a_47f1_8892_cdad46fd5024_Class21 ( Int) Bool)
(declare-fun type_46151cd2_2e0a_47f1_8892_cdad46fd5024_Class20 ( Int) Bool)
(declare-fun type_46151cd2_2e0a_47f1_8892_cdad46fd5024_Class23 ( Int) Bool)
(declare-fun type_46151cd2_2e0a_47f1_8892_cdad46fd5024_Class22 ( Int) Bool)

;formula(s) generated
(assert (! (forall ((v Int)) (=> ( type_46151cd2_2e0a_47f1_8892_cdad46fd5024_Class6 v )  (<= ( class6_Class6IntAttr3 ( obj_1410747d_e7e4_4a03_97a1_8334b2a138bc v )  )  15))):named l0))
(assert (! (forall ((c6_1 Int)(c6_2 Int)) (=> (and ( type_46151cd2_2e0a_47f1_8892_cdad46fd5024_Class6 c6_1 )  ( type_46151cd2_2e0a_47f1_8892_cdad46fd5024_Class6 c6_2 ) ) (<= ( class6_Class6IntAttr3 ( obj_1410747d_e7e4_4a03_97a1_8334b2a138bc c6_1 )  )  ( class6_Class6IntAttr4 ( obj_1410747d_e7e4_4a03_97a1_8334b2a138bc c6_2 )  ) ))):named l1))
(assert (! (exists ((o Int)) ( type_46151cd2_2e0a_47f1_8892_cdad46fd5024_Class0 ( obj_1410747d_e7e4_4a03_97a1_8334b2a138bc o )  ) ):named c0))
(assert (! (exists ((o Int)) (and (and (and (and (and ( type_46151cd2_2e0a_47f1_8892_cdad46fd5024_Class1 ( obj_1410747d_e7e4_4a03_97a1_8334b2a138bc o )  )  ( type_46151cd2_2e0a_47f1_8892_cdad46fd5024_Class45 ( obj_1410747d_e7e4_4a03_97a1_8334b2a138bc o )  ) ) ( type_46151cd2_2e0a_47f1_8892_cdad46fd5024_Class12 ( obj_1410747d_e7e4_4a03_97a1_8334b2a138bc o )  ) ) ( type_46151cd2_2e0a_47f1_8892_cdad46fd5024_Class33 ( obj_1410747d_e7e4_4a03_97a1_8334b2a138bc o )  ) ) ( type_46151cd2_2e0a_47f1_8892_cdad46fd5024_Class22 ( obj_1410747d_e7e4_4a03_97a1_8334b2a138bc o )  ) ) ( type_46151cd2_2e0a_47f1_8892_cdad46fd5024_Class39 ( obj_1410747d_e7e4_4a03_97a1_8334b2a138bc o )  ) )):named c1))
(assert (! (exists ((o Int)) (and (and (and (and (and (and (and (and (and ( type_46151cd2_2e0a_47f1_8892_cdad46fd5024_Class10 ( obj_1410747d_e7e4_4a03_97a1_8334b2a138bc o )  )  ( type_46151cd2_2e0a_47f1_8892_cdad46fd5024_Class45 ( obj_1410747d_e7e4_4a03_97a1_8334b2a138bc o )  ) ) ( type_46151cd2_2e0a_47f1_8892_cdad46fd5024_Class12 ( obj_1410747d_e7e4_4a03_97a1_8334b2a138bc o )  ) ) ( type_46151cd2_2e0a_47f1_8892_cdad46fd5024_Class55 ( obj_1410747d_e7e4_4a03_97a1_8334b2a138bc o )  ) ) ( type_46151cd2_2e0a_47f1_8892_cdad46fd5024_Class33 ( obj_1410747d_e7e4_4a03_97a1_8334b2a138bc o )  ) ) ( type_46151cd2_2e0a_47f1_8892_cdad46fd5024_Class22 ( obj_1410747d_e7e4_4a03_97a1_8334b2a138bc o )  ) ) ( type_46151cd2_2e0a_47f1_8892_cdad46fd5024_Class29 ( obj_1410747d_e7e4_4a03_97a1_8334b2a138bc o )  ) ) ( type_46151cd2_2e0a_47f1_8892_cdad46fd5024_Class39 ( obj_1410747d_e7e4_4a03_97a1_8334b2a138bc o )  ) ) ( type_46151cd2_2e0a_47f1_8892_cdad46fd5024_Class50 ( obj_1410747d_e7e4_4a03_97a1_8334b2a138bc o )  ) ) ( type_46151cd2_2e0a_47f1_8892_cdad46fd5024_Class41 ( obj_1410747d_e7e4_4a03_97a1_8334b2a138bc o )  ) )):named c2))
(assert (! (exists ((o Int)) ( type_46151cd2_2e0a_47f1_8892_cdad46fd5024_Class11 ( obj_1410747d_e7e4_4a03_97a1_8334b2a138bc o )  ) ):named c3))
(assert (! (exists ((o Int)) (and (and (and ( type_46151cd2_2e0a_47f1_8892_cdad46fd5024_Class12 ( obj_1410747d_e7e4_4a03_97a1_8334b2a138bc o )  )  ( type_46151cd2_2e0a_47f1_8892_cdad46fd5024_Class33 ( obj_1410747d_e7e4_4a03_97a1_8334b2a138bc o )  ) ) ( type_46151cd2_2e0a_47f1_8892_cdad46fd5024_Class22 ( obj_1410747d_e7e4_4a03_97a1_8334b2a138bc o )  ) ) ( type_46151cd2_2e0a_47f1_8892_cdad46fd5024_Class39 ( obj_1410747d_e7e4_4a03_97a1_8334b2a138bc o )  ) )):named c4))
(assert (! (exists ((o Int)) (and (and (and (and (and (and (and (and (and ( type_46151cd2_2e0a_47f1_8892_cdad46fd5024_Class13 ( obj_1410747d_e7e4_4a03_97a1_8334b2a138bc o )  )  ( type_46151cd2_2e0a_47f1_8892_cdad46fd5024_Class45 ( obj_1410747d_e7e4_4a03_97a1_8334b2a138bc o )  ) ) ( type_46151cd2_2e0a_47f1_8892_cdad46fd5024_Class12 ( obj_1410747d_e7e4_4a03_97a1_8334b2a138bc o )  ) ) ( type_46151cd2_2e0a_47f1_8892_cdad46fd5024_Class55 ( obj_1410747d_e7e4_4a03_97a1_8334b2a138bc o )  ) ) ( type_46151cd2_2e0a_47f1_8892_cdad46fd5024_Class33 ( obj_1410747d_e7e4_4a03_97a1_8334b2a138bc o )  ) ) ( type_46151cd2_2e0a_47f1_8892_cdad46fd5024_Class22 ( obj_1410747d_e7e4_4a03_97a1_8334b2a138bc o )  ) ) ( type_46151cd2_2e0a_47f1_8892_cdad46fd5024_Class29 ( obj_1410747d_e7e4_4a03_97a1_8334b2a138bc o )  ) ) ( type_46151cd2_2e0a_47f1_8892_cdad46fd5024_Class39 ( obj_1410747d_e7e4_4a03_97a1_8334b2a138bc o )  ) ) ( type_46151cd2_2e0a_47f1_8892_cdad46fd5024_Class50 ( obj_1410747d_e7e4_4a03_97a1_8334b2a138bc o )  ) ) ( type_46151cd2_2e0a_47f1_8892_cdad46fd5024_Class41 ( obj_1410747d_e7e4_4a03_97a1_8334b2a138bc o )  ) )):named c5))
(assert (! (exists ((o Int)) (and (and (and (and (and (and (and (and (and ( type_46151cd2_2e0a_47f1_8892_cdad46fd5024_Class14 ( obj_1410747d_e7e4_4a03_97a1_8334b2a138bc o )  )  ( type_46151cd2_2e0a_47f1_8892_cdad46fd5024_Class45 ( obj_1410747d_e7e4_4a03_97a1_8334b2a138bc o )  ) ) ( type_46151cd2_2e0a_47f1_8892_cdad46fd5024_Class12 ( obj_1410747d_e7e4_4a03_97a1_8334b2a138bc o )  ) ) ( type_46151cd2_2e0a_47f1_8892_cdad46fd5024_Class55 ( obj_1410747d_e7e4_4a03_97a1_8334b2a138bc o )  ) ) ( type_46151cd2_2e0a_47f1_8892_cdad46fd5024_Class33 ( obj_1410747d_e7e4_4a03_97a1_8334b2a138bc o )  ) ) ( type_46151cd2_2e0a_47f1_8892_cdad46fd5024_Class22 ( obj_1410747d_e7e4_4a03_97a1_8334b2a138bc o )  ) ) ( type_46151cd2_2e0a_47f1_8892_cdad46fd5024_Class29 ( obj_1410747d_e7e4_4a03_97a1_8334b2a138bc o )  ) ) ( type_46151cd2_2e0a_47f1_8892_cdad46fd5024_Class39 ( obj_1410747d_e7e4_4a03_97a1_8334b2a138bc o )  ) ) ( type_46151cd2_2e0a_47f1_8892_cdad46fd5024_Class50 ( obj_1410747d_e7e4_4a03_97a1_8334b2a138bc o )  ) ) ( type_46151cd2_2e0a_47f1_8892_cdad46fd5024_Class41 ( obj_1410747d_e7e4_4a03_97a1_8334b2a138bc o )  ) )):named c6))
(assert (! (exists ((o Int)) ( type_46151cd2_2e0a_47f1_8892_cdad46fd5024_Class15 ( obj_1410747d_e7e4_4a03_97a1_8334b2a138bc o )  ) ):named c7))
(assert (! (exists ((o Int)) (and (and (and (and (and ( type_46151cd2_2e0a_47f1_8892_cdad46fd5024_Class16 ( obj_1410747d_e7e4_4a03_97a1_8334b2a138bc o )  )  ( type_46151cd2_2e0a_47f1_8892_cdad46fd5024_Class45 ( obj_1410747d_e7e4_4a03_97a1_8334b2a138bc o )  ) ) ( type_46151cd2_2e0a_47f1_8892_cdad46fd5024_Class12 ( obj_1410747d_e7e4_4a03_97a1_8334b2a138bc o )  ) ) ( type_46151cd2_2e0a_47f1_8892_cdad46fd5024_Class33 ( obj_1410747d_e7e4_4a03_97a1_8334b2a138bc o )  ) ) ( type_46151cd2_2e0a_47f1_8892_cdad46fd5024_Class22 ( obj_1410747d_e7e4_4a03_97a1_8334b2a138bc o )  ) ) ( type_46151cd2_2e0a_47f1_8892_cdad46fd5024_Class39 ( obj_1410747d_e7e4_4a03_97a1_8334b2a138bc o )  ) )):named c8))
(assert (! (exists ((o Int)) ( type_46151cd2_2e0a_47f1_8892_cdad46fd5024_Class17 ( obj_1410747d_e7e4_4a03_97a1_8334b2a138bc o )  ) ):named c9))
(assert (! (exists ((o Int)) (and (and (and ( type_46151cd2_2e0a_47f1_8892_cdad46fd5024_Class18 ( obj_1410747d_e7e4_4a03_97a1_8334b2a138bc o )  )  ( type_46151cd2_2e0a_47f1_8892_cdad46fd5024_Class25 ( obj_1410747d_e7e4_4a03_97a1_8334b2a138bc o )  ) ) ( type_46151cd2_2e0a_47f1_8892_cdad46fd5024_Class24 ( obj_1410747d_e7e4_4a03_97a1_8334b2a138bc o )  ) ) ( type_46151cd2_2e0a_47f1_8892_cdad46fd5024_Class39 ( obj_1410747d_e7e4_4a03_97a1_8334b2a138bc o )  ) )):named c10))
(assert (! (exists ((o Int)) (and (and (and (and (and (and (and (and (and ( type_46151cd2_2e0a_47f1_8892_cdad46fd5024_Class19 ( obj_1410747d_e7e4_4a03_97a1_8334b2a138bc o )  )  ( type_46151cd2_2e0a_47f1_8892_cdad46fd5024_Class45 ( obj_1410747d_e7e4_4a03_97a1_8334b2a138bc o )  ) ) ( type_46151cd2_2e0a_47f1_8892_cdad46fd5024_Class12 ( obj_1410747d_e7e4_4a03_97a1_8334b2a138bc o )  ) ) ( type_46151cd2_2e0a_47f1_8892_cdad46fd5024_Class55 ( obj_1410747d_e7e4_4a03_97a1_8334b2a138bc o )  ) ) ( type_46151cd2_2e0a_47f1_8892_cdad46fd5024_Class33 ( obj_1410747d_e7e4_4a03_97a1_8334b2a138bc o )  ) ) ( type_46151cd2_2e0a_47f1_8892_cdad46fd5024_Class22 ( obj_1410747d_e7e4_4a03_97a1_8334b2a138bc o )  ) ) ( type_46151cd2_2e0a_47f1_8892_cdad46fd5024_Class29 ( obj_1410747d_e7e4_4a03_97a1_8334b2a138bc o )  ) ) ( type_46151cd2_2e0a_47f1_8892_cdad46fd5024_Class39 ( obj_1410747d_e7e4_4a03_97a1_8334b2a138bc o )  ) ) ( type_46151cd2_2e0a_47f1_8892_cdad46fd5024_Class50 ( obj_1410747d_e7e4_4a03_97a1_8334b2a138bc o )  ) ) ( type_46151cd2_2e0a_47f1_8892_cdad46fd5024_Class41 ( obj_1410747d_e7e4_4a03_97a1_8334b2a138bc o )  ) )):named c11))
(assert (! (exists ((o Int)) ( type_46151cd2_2e0a_47f1_8892_cdad46fd5024_Class2 ( obj_1410747d_e7e4_4a03_97a1_8334b2a138bc o )  ) ):named c12))
(assert (! (exists ((o Int)) ( type_46151cd2_2e0a_47f1_8892_cdad46fd5024_Class20 ( obj_1410747d_e7e4_4a03_97a1_8334b2a138bc o )  ) ):named c13))
(assert (! (exists ((o Int)) (and (and (and (and (and (and (and (and (and ( type_46151cd2_2e0a_47f1_8892_cdad46fd5024_Class21 ( obj_1410747d_e7e4_4a03_97a1_8334b2a138bc o )  )  ( type_46151cd2_2e0a_47f1_8892_cdad46fd5024_Class45 ( obj_1410747d_e7e4_4a03_97a1_8334b2a138bc o )  ) ) ( type_46151cd2_2e0a_47f1_8892_cdad46fd5024_Class12 ( obj_1410747d_e7e4_4a03_97a1_8334b2a138bc o )  ) ) ( type_46151cd2_2e0a_47f1_8892_cdad46fd5024_Class33 ( obj_1410747d_e7e4_4a03_97a1_8334b2a138bc o )  ) ) ( type_46151cd2_2e0a_47f1_8892_cdad46fd5024_Class22 ( obj_1410747d_e7e4_4a03_97a1_8334b2a138bc o )  ) ) ( type_46151cd2_2e0a_47f1_8892_cdad46fd5024_Class16 ( obj_1410747d_e7e4_4a03_97a1_8334b2a138bc o )  ) ) ( type_46151cd2_2e0a_47f1_8892_cdad46fd5024_Class29 ( obj_1410747d_e7e4_4a03_97a1_8334b2a138bc o )  ) ) ( type_46151cd2_2e0a_47f1_8892_cdad46fd5024_Class39 ( obj_1410747d_e7e4_4a03_97a1_8334b2a138bc o )  ) ) ( type_46151cd2_2e0a_47f1_8892_cdad46fd5024_Class41 ( obj_1410747d_e7e4_4a03_97a1_8334b2a138bc o )  ) ) ( type_46151cd2_2e0a_47f1_8892_cdad46fd5024_Class51 ( obj_1410747d_e7e4_4a03_97a1_8334b2a138bc o )  ) )):named c14))
(assert (! (exists ((o Int)) (and ( type_46151cd2_2e0a_47f1_8892_cdad46fd5024_Class22 ( obj_1410747d_e7e4_4a03_97a1_8334b2a138bc o )  )  ( type_46151cd2_2e0a_47f1_8892_cdad46fd5024_Class39 ( obj_1410747d_e7e4_4a03_97a1_8334b2a138bc o )  ) )):named c15))
(assert (! (exists ((o Int)) (and (and (and (and ( type_46151cd2_2e0a_47f1_8892_cdad46fd5024_Class23 ( obj_1410747d_e7e4_4a03_97a1_8334b2a138bc o )  )  ( type_46151cd2_2e0a_47f1_8892_cdad46fd5024_Class25 ( obj_1410747d_e7e4_4a03_97a1_8334b2a138bc o )  ) ) ( type_46151cd2_2e0a_47f1_8892_cdad46fd5024_Class24 ( obj_1410747d_e7e4_4a03_97a1_8334b2a138bc o )  ) ) ( type_46151cd2_2e0a_47f1_8892_cdad46fd5024_Class39 ( obj_1410747d_e7e4_4a03_97a1_8334b2a138bc o )  ) ) ( type_46151cd2_2e0a_47f1_8892_cdad46fd5024_Class5 ( obj_1410747d_e7e4_4a03_97a1_8334b2a138bc o )  ) )):named c16))
(assert (! (exists ((o Int)) (and (and ( type_46151cd2_2e0a_47f1_8892_cdad46fd5024_Class24 ( obj_1410747d_e7e4_4a03_97a1_8334b2a138bc o )  )  ( type_46151cd2_2e0a_47f1_8892_cdad46fd5024_Class25 ( obj_1410747d_e7e4_4a03_97a1_8334b2a138bc o )  ) ) ( type_46151cd2_2e0a_47f1_8892_cdad46fd5024_Class39 ( obj_1410747d_e7e4_4a03_97a1_8334b2a138bc o )  ) )):named c17))
(assert (! (exists ((o Int)) (and ( type_46151cd2_2e0a_47f1_8892_cdad46fd5024_Class25 ( obj_1410747d_e7e4_4a03_97a1_8334b2a138bc o )  )  ( type_46151cd2_2e0a_47f1_8892_cdad46fd5024_Class39 ( obj_1410747d_e7e4_4a03_97a1_8334b2a138bc o )  ) )):named c18))
(assert (! (exists ((o Int)) ( type_46151cd2_2e0a_47f1_8892_cdad46fd5024_Class26 ( obj_1410747d_e7e4_4a03_97a1_8334b2a138bc o )  ) ):named c19))
(assert (! (exists ((o Int)) ( type_46151cd2_2e0a_47f1_8892_cdad46fd5024_Class27 ( obj_1410747d_e7e4_4a03_97a1_8334b2a138bc o )  ) ):named c20))
(assert (! (exists ((o Int)) (and (and (and (and (and (and (and ( type_46151cd2_2e0a_47f1_8892_cdad46fd5024_Class28 ( obj_1410747d_e7e4_4a03_97a1_8334b2a138bc o )  )  ( type_46151cd2_2e0a_47f1_8892_cdad46fd5024_Class45 ( obj_1410747d_e7e4_4a03_97a1_8334b2a138bc o )  ) ) ( type_46151cd2_2e0a_47f1_8892_cdad46fd5024_Class12 ( obj_1410747d_e7e4_4a03_97a1_8334b2a138bc o )  ) ) ( type_46151cd2_2e0a_47f1_8892_cdad46fd5024_Class33 ( obj_1410747d_e7e4_4a03_97a1_8334b2a138bc o )  ) ) ( type_46151cd2_2e0a_47f1_8892_cdad46fd5024_Class22 ( obj_1410747d_e7e4_4a03_97a1_8334b2a138bc o )  ) ) ( type_46151cd2_2e0a_47f1_8892_cdad46fd5024_Class29 ( obj_1410747d_e7e4_4a03_97a1_8334b2a138bc o )  ) ) ( type_46151cd2_2e0a_47f1_8892_cdad46fd5024_Class39 ( obj_1410747d_e7e4_4a03_97a1_8334b2a138bc o )  ) ) ( type_46151cd2_2e0a_47f1_8892_cdad46fd5024_Class41 ( obj_1410747d_e7e4_4a03_97a1_8334b2a138bc o )  ) )):named c21))
(assert (! (exists ((o Int)) (and (and (and (and (and (and ( type_46151cd2_2e0a_47f1_8892_cdad46fd5024_Class29 ( obj_1410747d_e7e4_4a03_97a1_8334b2a138bc o )  )  ( type_46151cd2_2e0a_47f1_8892_cdad46fd5024_Class45 ( obj_1410747d_e7e4_4a03_97a1_8334b2a138bc o )  ) ) ( type_46151cd2_2e0a_47f1_8892_cdad46fd5024_Class12 ( obj_1410747d_e7e4_4a03_97a1_8334b2a138bc o )  ) ) ( type_46151cd2_2e0a_47f1_8892_cdad46fd5024_Class33 ( obj_1410747d_e7e4_4a03_97a1_8334b2a138bc o )  ) ) ( type_46151cd2_2e0a_47f1_8892_cdad46fd5024_Class22 ( obj_1410747d_e7e4_4a03_97a1_8334b2a138bc o )  ) ) ( type_46151cd2_2e0a_47f1_8892_cdad46fd5024_Class39 ( obj_1410747d_e7e4_4a03_97a1_8334b2a138bc o )  ) ) ( type_46151cd2_2e0a_47f1_8892_cdad46fd5024_Class41 ( obj_1410747d_e7e4_4a03_97a1_8334b2a138bc o )  ) )):named c22))
(assert (! (exists ((o Int)) (and (and (and ( type_46151cd2_2e0a_47f1_8892_cdad46fd5024_Class3 ( obj_1410747d_e7e4_4a03_97a1_8334b2a138bc o )  )  ( type_46151cd2_2e0a_47f1_8892_cdad46fd5024_Class25 ( obj_1410747d_e7e4_4a03_97a1_8334b2a138bc o )  ) ) ( type_46151cd2_2e0a_47f1_8892_cdad46fd5024_Class24 ( obj_1410747d_e7e4_4a03_97a1_8334b2a138bc o )  ) ) ( type_46151cd2_2e0a_47f1_8892_cdad46fd5024_Class39 ( obj_1410747d_e7e4_4a03_97a1_8334b2a138bc o )  ) )):named c23))
(assert (! (exists ((o Int)) (and ( type_46151cd2_2e0a_47f1_8892_cdad46fd5024_Class30 ( obj_1410747d_e7e4_4a03_97a1_8334b2a138bc o )  )  ( type_46151cd2_2e0a_47f1_8892_cdad46fd5024_Class39 ( obj_1410747d_e7e4_4a03_97a1_8334b2a138bc o )  ) )):named c24))
(assert (! (exists ((o Int)) (and (and (and (and (and ( type_46151cd2_2e0a_47f1_8892_cdad46fd5024_Class31 ( obj_1410747d_e7e4_4a03_97a1_8334b2a138bc o )  )  ( type_46151cd2_2e0a_47f1_8892_cdad46fd5024_Class45 ( obj_1410747d_e7e4_4a03_97a1_8334b2a138bc o )  ) ) ( type_46151cd2_2e0a_47f1_8892_cdad46fd5024_Class12 ( obj_1410747d_e7e4_4a03_97a1_8334b2a138bc o )  ) ) ( type_46151cd2_2e0a_47f1_8892_cdad46fd5024_Class33 ( obj_1410747d_e7e4_4a03_97a1_8334b2a138bc o )  ) ) ( type_46151cd2_2e0a_47f1_8892_cdad46fd5024_Class22 ( obj_1410747d_e7e4_4a03_97a1_8334b2a138bc o )  ) ) ( type_46151cd2_2e0a_47f1_8892_cdad46fd5024_Class39 ( obj_1410747d_e7e4_4a03_97a1_8334b2a138bc o )  ) )):named c25))
(assert (! (exists ((o Int)) ( type_46151cd2_2e0a_47f1_8892_cdad46fd5024_Class32 ( obj_1410747d_e7e4_4a03_97a1_8334b2a138bc o )  ) ):named c26))
(assert (! (exists ((o Int)) (and (and ( type_46151cd2_2e0a_47f1_8892_cdad46fd5024_Class33 ( obj_1410747d_e7e4_4a03_97a1_8334b2a138bc o )  )  ( type_46151cd2_2e0a_47f1_8892_cdad46fd5024_Class22 ( obj_1410747d_e7e4_4a03_97a1_8334b2a138bc o )  ) ) ( type_46151cd2_2e0a_47f1_8892_cdad46fd5024_Class39 ( obj_1410747d_e7e4_4a03_97a1_8334b2a138bc o )  ) )):named c27))
(assert (! (exists ((o Int)) (and (and (and ( type_46151cd2_2e0a_47f1_8892_cdad46fd5024_Class34 ( obj_1410747d_e7e4_4a03_97a1_8334b2a138bc o )  )  ( type_46151cd2_2e0a_47f1_8892_cdad46fd5024_Class25 ( obj_1410747d_e7e4_4a03_97a1_8334b2a138bc o )  ) ) ( type_46151cd2_2e0a_47f1_8892_cdad46fd5024_Class24 ( obj_1410747d_e7e4_4a03_97a1_8334b2a138bc o )  ) ) ( type_46151cd2_2e0a_47f1_8892_cdad46fd5024_Class39 ( obj_1410747d_e7e4_4a03_97a1_8334b2a138bc o )  ) )):named c28))
(assert (! (exists ((o Int)) (and (and ( type_46151cd2_2e0a_47f1_8892_cdad46fd5024_Class35 ( obj_1410747d_e7e4_4a03_97a1_8334b2a138bc o )  )  ( type_46151cd2_2e0a_47f1_8892_cdad46fd5024_Class39 ( obj_1410747d_e7e4_4a03_97a1_8334b2a138bc o )  ) ) ( type_46151cd2_2e0a_47f1_8892_cdad46fd5024_Class30 ( obj_1410747d_e7e4_4a03_97a1_8334b2a138bc o )  ) )):named c29))
(assert (! (exists ((o Int)) ( type_46151cd2_2e0a_47f1_8892_cdad46fd5024_Class36 ( obj_1410747d_e7e4_4a03_97a1_8334b2a138bc o )  ) ):named c30))
(assert (! (exists ((o Int)) ( type_46151cd2_2e0a_47f1_8892_cdad46fd5024_Class37 ( obj_1410747d_e7e4_4a03_97a1_8334b2a138bc o )  ) ):named c31))
(assert (! (exists ((o Int)) ( type_46151cd2_2e0a_47f1_8892_cdad46fd5024_Class38 ( obj_1410747d_e7e4_4a03_97a1_8334b2a138bc o )  ) ):named c32))
(assert (! (exists ((o Int)) ( type_46151cd2_2e0a_47f1_8892_cdad46fd5024_Class39 ( obj_1410747d_e7e4_4a03_97a1_8334b2a138bc o )  ) ):named c33))
(assert (! (exists ((o Int)) ( type_46151cd2_2e0a_47f1_8892_cdad46fd5024_Class4 ( obj_1410747d_e7e4_4a03_97a1_8334b2a138bc o )  ) ):named c34))
(assert (! (exists ((o Int)) (and (and (and (and (and (and (and (and (and ( type_46151cd2_2e0a_47f1_8892_cdad46fd5024_Class40 ( obj_1410747d_e7e4_4a03_97a1_8334b2a138bc o )  )  ( type_46151cd2_2e0a_47f1_8892_cdad46fd5024_Class45 ( obj_1410747d_e7e4_4a03_97a1_8334b2a138bc o )  ) ) ( type_46151cd2_2e0a_47f1_8892_cdad46fd5024_Class12 ( obj_1410747d_e7e4_4a03_97a1_8334b2a138bc o )  ) ) ( type_46151cd2_2e0a_47f1_8892_cdad46fd5024_Class55 ( obj_1410747d_e7e4_4a03_97a1_8334b2a138bc o )  ) ) ( type_46151cd2_2e0a_47f1_8892_cdad46fd5024_Class33 ( obj_1410747d_e7e4_4a03_97a1_8334b2a138bc o )  ) ) ( type_46151cd2_2e0a_47f1_8892_cdad46fd5024_Class22 ( obj_1410747d_e7e4_4a03_97a1_8334b2a138bc o )  ) ) ( type_46151cd2_2e0a_47f1_8892_cdad46fd5024_Class29 ( obj_1410747d_e7e4_4a03_97a1_8334b2a138bc o )  ) ) ( type_46151cd2_2e0a_47f1_8892_cdad46fd5024_Class39 ( obj_1410747d_e7e4_4a03_97a1_8334b2a138bc o )  ) ) ( type_46151cd2_2e0a_47f1_8892_cdad46fd5024_Class50 ( obj_1410747d_e7e4_4a03_97a1_8334b2a138bc o )  ) ) ( type_46151cd2_2e0a_47f1_8892_cdad46fd5024_Class41 ( obj_1410747d_e7e4_4a03_97a1_8334b2a138bc o )  ) )):named c35))
(assert (! (exists ((o Int)) (and (and (and (and (and ( type_46151cd2_2e0a_47f1_8892_cdad46fd5024_Class41 ( obj_1410747d_e7e4_4a03_97a1_8334b2a138bc o )  )  ( type_46151cd2_2e0a_47f1_8892_cdad46fd5024_Class45 ( obj_1410747d_e7e4_4a03_97a1_8334b2a138bc o )  ) ) ( type_46151cd2_2e0a_47f1_8892_cdad46fd5024_Class12 ( obj_1410747d_e7e4_4a03_97a1_8334b2a138bc o )  ) ) ( type_46151cd2_2e0a_47f1_8892_cdad46fd5024_Class33 ( obj_1410747d_e7e4_4a03_97a1_8334b2a138bc o )  ) ) ( type_46151cd2_2e0a_47f1_8892_cdad46fd5024_Class22 ( obj_1410747d_e7e4_4a03_97a1_8334b2a138bc o )  ) ) ( type_46151cd2_2e0a_47f1_8892_cdad46fd5024_Class39 ( obj_1410747d_e7e4_4a03_97a1_8334b2a138bc o )  ) )):named c36))
(assert (! (exists ((o Int)) (and ( type_46151cd2_2e0a_47f1_8892_cdad46fd5024_Class42 ( obj_1410747d_e7e4_4a03_97a1_8334b2a138bc o )  )  ( type_46151cd2_2e0a_47f1_8892_cdad46fd5024_Class39 ( obj_1410747d_e7e4_4a03_97a1_8334b2a138bc o )  ) )):named c37))
(assert (! (exists ((o Int)) ( type_46151cd2_2e0a_47f1_8892_cdad46fd5024_Class43 ( obj_1410747d_e7e4_4a03_97a1_8334b2a138bc o )  ) ):named c38))
(assert (! (exists ((o Int)) (and (and (and (and (and (and (and ( type_46151cd2_2e0a_47f1_8892_cdad46fd5024_Class44 ( obj_1410747d_e7e4_4a03_97a1_8334b2a138bc o )  )  ( type_46151cd2_2e0a_47f1_8892_cdad46fd5024_Class45 ( obj_1410747d_e7e4_4a03_97a1_8334b2a138bc o )  ) ) ( type_46151cd2_2e0a_47f1_8892_cdad46fd5024_Class12 ( obj_1410747d_e7e4_4a03_97a1_8334b2a138bc o )  ) ) ( type_46151cd2_2e0a_47f1_8892_cdad46fd5024_Class33 ( obj_1410747d_e7e4_4a03_97a1_8334b2a138bc o )  ) ) ( type_46151cd2_2e0a_47f1_8892_cdad46fd5024_Class22 ( obj_1410747d_e7e4_4a03_97a1_8334b2a138bc o )  ) ) ( type_46151cd2_2e0a_47f1_8892_cdad46fd5024_Class29 ( obj_1410747d_e7e4_4a03_97a1_8334b2a138bc o )  ) ) ( type_46151cd2_2e0a_47f1_8892_cdad46fd5024_Class39 ( obj_1410747d_e7e4_4a03_97a1_8334b2a138bc o )  ) ) ( type_46151cd2_2e0a_47f1_8892_cdad46fd5024_Class41 ( obj_1410747d_e7e4_4a03_97a1_8334b2a138bc o )  ) )):named c39))
(assert (! (exists ((o Int)) (and (and (and (and ( type_46151cd2_2e0a_47f1_8892_cdad46fd5024_Class45 ( obj_1410747d_e7e4_4a03_97a1_8334b2a138bc o )  )  ( type_46151cd2_2e0a_47f1_8892_cdad46fd5024_Class12 ( obj_1410747d_e7e4_4a03_97a1_8334b2a138bc o )  ) ) ( type_46151cd2_2e0a_47f1_8892_cdad46fd5024_Class33 ( obj_1410747d_e7e4_4a03_97a1_8334b2a138bc o )  ) ) ( type_46151cd2_2e0a_47f1_8892_cdad46fd5024_Class22 ( obj_1410747d_e7e4_4a03_97a1_8334b2a138bc o )  ) ) ( type_46151cd2_2e0a_47f1_8892_cdad46fd5024_Class39 ( obj_1410747d_e7e4_4a03_97a1_8334b2a138bc o )  ) )):named c40))
(assert (! (exists ((o Int)) (and (and ( type_46151cd2_2e0a_47f1_8892_cdad46fd5024_Class46 ( obj_1410747d_e7e4_4a03_97a1_8334b2a138bc o )  )  ( type_46151cd2_2e0a_47f1_8892_cdad46fd5024_Class39 ( obj_1410747d_e7e4_4a03_97a1_8334b2a138bc o )  ) ) ( type_46151cd2_2e0a_47f1_8892_cdad46fd5024_Class5 ( obj_1410747d_e7e4_4a03_97a1_8334b2a138bc o )  ) )):named c41))
(assert (! (exists ((o Int)) ( type_46151cd2_2e0a_47f1_8892_cdad46fd5024_Class47 ( obj_1410747d_e7e4_4a03_97a1_8334b2a138bc o )  ) ):named c42))
(assert (! (exists ((o Int)) (and (and (and (and (and (and (and (and (and ( type_46151cd2_2e0a_47f1_8892_cdad46fd5024_Class48 ( obj_1410747d_e7e4_4a03_97a1_8334b2a138bc o )  )  ( type_46151cd2_2e0a_47f1_8892_cdad46fd5024_Class45 ( obj_1410747d_e7e4_4a03_97a1_8334b2a138bc o )  ) ) ( type_46151cd2_2e0a_47f1_8892_cdad46fd5024_Class12 ( obj_1410747d_e7e4_4a03_97a1_8334b2a138bc o )  ) ) ( type_46151cd2_2e0a_47f1_8892_cdad46fd5024_Class55 ( obj_1410747d_e7e4_4a03_97a1_8334b2a138bc o )  ) ) ( type_46151cd2_2e0a_47f1_8892_cdad46fd5024_Class33 ( obj_1410747d_e7e4_4a03_97a1_8334b2a138bc o )  ) ) ( type_46151cd2_2e0a_47f1_8892_cdad46fd5024_Class22 ( obj_1410747d_e7e4_4a03_97a1_8334b2a138bc o )  ) ) ( type_46151cd2_2e0a_47f1_8892_cdad46fd5024_Class29 ( obj_1410747d_e7e4_4a03_97a1_8334b2a138bc o )  ) ) ( type_46151cd2_2e0a_47f1_8892_cdad46fd5024_Class39 ( obj_1410747d_e7e4_4a03_97a1_8334b2a138bc o )  ) ) ( type_46151cd2_2e0a_47f1_8892_cdad46fd5024_Class50 ( obj_1410747d_e7e4_4a03_97a1_8334b2a138bc o )  ) ) ( type_46151cd2_2e0a_47f1_8892_cdad46fd5024_Class41 ( obj_1410747d_e7e4_4a03_97a1_8334b2a138bc o )  ) )):named c43))
(assert (! (exists ((o Int)) (and (and (and (and (and (and (and (and (and ( type_46151cd2_2e0a_47f1_8892_cdad46fd5024_Class49 ( obj_1410747d_e7e4_4a03_97a1_8334b2a138bc o )  )  ( type_46151cd2_2e0a_47f1_8892_cdad46fd5024_Class45 ( obj_1410747d_e7e4_4a03_97a1_8334b2a138bc o )  ) ) ( type_46151cd2_2e0a_47f1_8892_cdad46fd5024_Class12 ( obj_1410747d_e7e4_4a03_97a1_8334b2a138bc o )  ) ) ( type_46151cd2_2e0a_47f1_8892_cdad46fd5024_Class55 ( obj_1410747d_e7e4_4a03_97a1_8334b2a138bc o )  ) ) ( type_46151cd2_2e0a_47f1_8892_cdad46fd5024_Class33 ( obj_1410747d_e7e4_4a03_97a1_8334b2a138bc o )  ) ) ( type_46151cd2_2e0a_47f1_8892_cdad46fd5024_Class22 ( obj_1410747d_e7e4_4a03_97a1_8334b2a138bc o )  ) ) ( type_46151cd2_2e0a_47f1_8892_cdad46fd5024_Class29 ( obj_1410747d_e7e4_4a03_97a1_8334b2a138bc o )  ) ) ( type_46151cd2_2e0a_47f1_8892_cdad46fd5024_Class39 ( obj_1410747d_e7e4_4a03_97a1_8334b2a138bc o )  ) ) ( type_46151cd2_2e0a_47f1_8892_cdad46fd5024_Class50 ( obj_1410747d_e7e4_4a03_97a1_8334b2a138bc o )  ) ) ( type_46151cd2_2e0a_47f1_8892_cdad46fd5024_Class41 ( obj_1410747d_e7e4_4a03_97a1_8334b2a138bc o )  ) )):named c44))
(assert (! (exists ((o Int)) (and ( type_46151cd2_2e0a_47f1_8892_cdad46fd5024_Class5 ( obj_1410747d_e7e4_4a03_97a1_8334b2a138bc o )  )  ( type_46151cd2_2e0a_47f1_8892_cdad46fd5024_Class39 ( obj_1410747d_e7e4_4a03_97a1_8334b2a138bc o )  ) )):named c45))
(assert (! (exists ((o Int)) (and (and (and (and (and (and (and (and ( type_46151cd2_2e0a_47f1_8892_cdad46fd5024_Class50 ( obj_1410747d_e7e4_4a03_97a1_8334b2a138bc o )  )  ( type_46151cd2_2e0a_47f1_8892_cdad46fd5024_Class45 ( obj_1410747d_e7e4_4a03_97a1_8334b2a138bc o )  ) ) ( type_46151cd2_2e0a_47f1_8892_cdad46fd5024_Class12 ( obj_1410747d_e7e4_4a03_97a1_8334b2a138bc o )  ) ) ( type_46151cd2_2e0a_47f1_8892_cdad46fd5024_Class55 ( obj_1410747d_e7e4_4a03_97a1_8334b2a138bc o )  ) ) ( type_46151cd2_2e0a_47f1_8892_cdad46fd5024_Class33 ( obj_1410747d_e7e4_4a03_97a1_8334b2a138bc o )  ) ) ( type_46151cd2_2e0a_47f1_8892_cdad46fd5024_Class22 ( obj_1410747d_e7e4_4a03_97a1_8334b2a138bc o )  ) ) ( type_46151cd2_2e0a_47f1_8892_cdad46fd5024_Class29 ( obj_1410747d_e7e4_4a03_97a1_8334b2a138bc o )  ) ) ( type_46151cd2_2e0a_47f1_8892_cdad46fd5024_Class39 ( obj_1410747d_e7e4_4a03_97a1_8334b2a138bc o )  ) ) ( type_46151cd2_2e0a_47f1_8892_cdad46fd5024_Class41 ( obj_1410747d_e7e4_4a03_97a1_8334b2a138bc o )  ) )):named c46))
(assert (! (exists ((o Int)) (and (and (and (and (and (and ( type_46151cd2_2e0a_47f1_8892_cdad46fd5024_Class51 ( obj_1410747d_e7e4_4a03_97a1_8334b2a138bc o )  )  ( type_46151cd2_2e0a_47f1_8892_cdad46fd5024_Class45 ( obj_1410747d_e7e4_4a03_97a1_8334b2a138bc o )  ) ) ( type_46151cd2_2e0a_47f1_8892_cdad46fd5024_Class12 ( obj_1410747d_e7e4_4a03_97a1_8334b2a138bc o )  ) ) ( type_46151cd2_2e0a_47f1_8892_cdad46fd5024_Class33 ( obj_1410747d_e7e4_4a03_97a1_8334b2a138bc o )  ) ) ( type_46151cd2_2e0a_47f1_8892_cdad46fd5024_Class22 ( obj_1410747d_e7e4_4a03_97a1_8334b2a138bc o )  ) ) ( type_46151cd2_2e0a_47f1_8892_cdad46fd5024_Class16 ( obj_1410747d_e7e4_4a03_97a1_8334b2a138bc o )  ) ) ( type_46151cd2_2e0a_47f1_8892_cdad46fd5024_Class39 ( obj_1410747d_e7e4_4a03_97a1_8334b2a138bc o )  ) )):named c47))
(assert (! (exists ((o Int)) (and (and (and (and (and ( type_46151cd2_2e0a_47f1_8892_cdad46fd5024_Class52 ( obj_1410747d_e7e4_4a03_97a1_8334b2a138bc o )  )  ( type_46151cd2_2e0a_47f1_8892_cdad46fd5024_Class45 ( obj_1410747d_e7e4_4a03_97a1_8334b2a138bc o )  ) ) ( type_46151cd2_2e0a_47f1_8892_cdad46fd5024_Class12 ( obj_1410747d_e7e4_4a03_97a1_8334b2a138bc o )  ) ) ( type_46151cd2_2e0a_47f1_8892_cdad46fd5024_Class33 ( obj_1410747d_e7e4_4a03_97a1_8334b2a138bc o )  ) ) ( type_46151cd2_2e0a_47f1_8892_cdad46fd5024_Class22 ( obj_1410747d_e7e4_4a03_97a1_8334b2a138bc o )  ) ) ( type_46151cd2_2e0a_47f1_8892_cdad46fd5024_Class39 ( obj_1410747d_e7e4_4a03_97a1_8334b2a138bc o )  ) )):named c48))
(assert (! (exists ((o Int)) ( type_46151cd2_2e0a_47f1_8892_cdad46fd5024_Class53 ( obj_1410747d_e7e4_4a03_97a1_8334b2a138bc o )  ) ):named c49))
(assert (! (exists ((o Int)) ( type_46151cd2_2e0a_47f1_8892_cdad46fd5024_Class54 ( obj_1410747d_e7e4_4a03_97a1_8334b2a138bc o )  ) ):named c50))
(assert (! (exists ((o Int)) (and (and (and (and (and (and (and ( type_46151cd2_2e0a_47f1_8892_cdad46fd5024_Class55 ( obj_1410747d_e7e4_4a03_97a1_8334b2a138bc o )  )  ( type_46151cd2_2e0a_47f1_8892_cdad46fd5024_Class45 ( obj_1410747d_e7e4_4a03_97a1_8334b2a138bc o )  ) ) ( type_46151cd2_2e0a_47f1_8892_cdad46fd5024_Class12 ( obj_1410747d_e7e4_4a03_97a1_8334b2a138bc o )  ) ) ( type_46151cd2_2e0a_47f1_8892_cdad46fd5024_Class33 ( obj_1410747d_e7e4_4a03_97a1_8334b2a138bc o )  ) ) ( type_46151cd2_2e0a_47f1_8892_cdad46fd5024_Class22 ( obj_1410747d_e7e4_4a03_97a1_8334b2a138bc o )  ) ) ( type_46151cd2_2e0a_47f1_8892_cdad46fd5024_Class29 ( obj_1410747d_e7e4_4a03_97a1_8334b2a138bc o )  ) ) ( type_46151cd2_2e0a_47f1_8892_cdad46fd5024_Class39 ( obj_1410747d_e7e4_4a03_97a1_8334b2a138bc o )  ) ) ( type_46151cd2_2e0a_47f1_8892_cdad46fd5024_Class41 ( obj_1410747d_e7e4_4a03_97a1_8334b2a138bc o )  ) )):named c51))
(assert (! (exists ((o Int)) ( type_46151cd2_2e0a_47f1_8892_cdad46fd5024_Class6 ( obj_1410747d_e7e4_4a03_97a1_8334b2a138bc o )  ) ):named c52))
(assert (! (exists ((o Int)) (and (and (and (and (and (and (and (and (and ( type_46151cd2_2e0a_47f1_8892_cdad46fd5024_Class7 ( obj_1410747d_e7e4_4a03_97a1_8334b2a138bc o )  )  ( type_46151cd2_2e0a_47f1_8892_cdad46fd5024_Class45 ( obj_1410747d_e7e4_4a03_97a1_8334b2a138bc o )  ) ) ( type_46151cd2_2e0a_47f1_8892_cdad46fd5024_Class12 ( obj_1410747d_e7e4_4a03_97a1_8334b2a138bc o )  ) ) ( type_46151cd2_2e0a_47f1_8892_cdad46fd5024_Class55 ( obj_1410747d_e7e4_4a03_97a1_8334b2a138bc o )  ) ) ( type_46151cd2_2e0a_47f1_8892_cdad46fd5024_Class33 ( obj_1410747d_e7e4_4a03_97a1_8334b2a138bc o )  ) ) ( type_46151cd2_2e0a_47f1_8892_cdad46fd5024_Class22 ( obj_1410747d_e7e4_4a03_97a1_8334b2a138bc o )  ) ) ( type_46151cd2_2e0a_47f1_8892_cdad46fd5024_Class29 ( obj_1410747d_e7e4_4a03_97a1_8334b2a138bc o )  ) ) ( type_46151cd2_2e0a_47f1_8892_cdad46fd5024_Class39 ( obj_1410747d_e7e4_4a03_97a1_8334b2a138bc o )  ) ) ( type_46151cd2_2e0a_47f1_8892_cdad46fd5024_Class50 ( obj_1410747d_e7e4_4a03_97a1_8334b2a138bc o )  ) ) ( type_46151cd2_2e0a_47f1_8892_cdad46fd5024_Class41 ( obj_1410747d_e7e4_4a03_97a1_8334b2a138bc o )  ) )):named c53))
(assert (! (exists ((o Int)) (and ( type_46151cd2_2e0a_47f1_8892_cdad46fd5024_Class8 ( obj_1410747d_e7e4_4a03_97a1_8334b2a138bc o )  )  ( type_46151cd2_2e0a_47f1_8892_cdad46fd5024_Class39 ( obj_1410747d_e7e4_4a03_97a1_8334b2a138bc o )  ) )):named c54))
(assert (! (exists ((o Int)) ( type_46151cd2_2e0a_47f1_8892_cdad46fd5024_Class9 ( obj_1410747d_e7e4_4a03_97a1_8334b2a138bc o )  ) ):named c55))

 ;end of formula 